46 46
35 12
21 4
9 4
37 15
19 1
43 16
27 21
26 11
40 14
32 6
46 23
42 8
8 10
24 13
4 2
16 18
25 7
41 3
14 8
3 6
22 17
33 2
7 17
34 19
39 11
45 5
2 16
17 21
28 23
6 13
10 9
1 22
18 19
44 20
31 10
36 7
5 1
12 3
11 15
15 9
29 14
30 20
38 22
20 5
23 12
13 18
